
include ${pot}.lmp
include kalj.lmp
units lj
atom_style atomic

variable dimensions equal 3
variable density equal 1.2
variable fraca equal 0.8

dimension ${dimensions}
dimension 3
read_restart ${prevbasename}.final.lmprestart.${steps}
read_restart equil/kalj_T0.8_n360_v300_150000_1.final.lmprestart.${steps}
read_restart equil/kalj_T0.8_n360_v300_150000_1.final.lmprestart.150000
Reading restart file ...
  restart file = 15 Sep 2022, LAMMPS = 15 Sep 2022
  restoring atom style atomic from restart
  orthogonal box = (0 0 0) to (6.6943295 6.6943295 6.6943295)
  1 by 2 by 2 MPI processor grid
  restoring pair style lj/cut from restart
  360 atoms
  read_restart CPU = 0.050 seconds
include ${pot}_particles.lmp
include kalj_particles.lmp
mass * 1.0 #  set mass 1.0 for all types

pair_style lj/cut 2.5
#pair coeffs type1 type2 eps sigma
pair_coeff 1 1 1.0 1.00 2.5
pair_coeff 1 2 1.5 0.80 2.0
pair_coeff 2 2 0.5 0.88 2.2
pair_modify shift yes
reset_timestep 0

print "Setting up equilibration run"
Setting up equilibration run
variable dumptime2 equal ${steps}/2000
variable dumptime2 equal 150000/2000
dump 1 all dcd ${dumptime2} ${basename}.unwrap.dcd
dump 1 all dcd 75 ${basename}.unwrap.dcd
dump 1 all dcd 75 prod/kalj_T0.8_n360_v300_prod_150000_1.unwrap.dcd
#dump 2 all dcd ${dumptime2} ${basename}.dcd
dump_modify 1 unwrap yes
#dump_modify 2 unwrap no

restart ${restarttime} ${basename}.restart
restart 150000 ${basename}.restart
restart 150000 prod/kalj_T0.8_n360_v300_prod_150000_1.restart
restart ${steps} ${basename}.final.lmprestart
restart 150000 ${basename}.final.lmprestart
restart 150000 prod/kalj_T0.8_n360_v300_prod_150000_1.final.lmprestart

thermo ${thermotime}
thermo 5000
timestep ${timestep}
timestep 0.002

neighbor 0.5 bin
neigh_modify every 1 delay ${neighborstep} check yes
neigh_modify every 1 delay 25 check yes

#velocity all create ${temp} ${id} dist gaussian
fix 1 all nvt temp ${temp} ${temp} ${taut}
fix 1 all nvt temp 0.8 ${temp} ${taut}
fix 1 all nvt temp 0.8 0.8 ${taut}
fix 1 all nvt temp 0.8 0.8 0.2
Resetting global fix info from restart file:
  fix style: nvt, fix ID: 1

variable steps4 equal ${steps}/4
variable steps4 equal 150000/4
run ${steps4}
run 37500
Generated 0 of 1 mixed pair_coeff terms from geometric mixing rule
All restart file global fix info was re-assigned
Neighbor list info ...
  update: every = 1 steps, delay = 25 steps, check = yes
  max neighbors/atom: 2000, page size: 100000
  master list distance cutoff = 3
  ghost atom cutoff = 3
  binsize = 1.5, bins = 5 5 5
  1 neighbor lists, perpetual/occasional/extra = 1 0 0
  (1) pair lj/cut, perpetual
      attributes: half, newton on
      pair build: half/bin/atomonly/newton
      stencil: half/bin/3d
      bin: standard
Per MPI rank memory allocation (min/avg/max) = 3.138 | 3.138 | 3.139 Mbytes
   Step          Temp          E_pair         E_mol          TotEng         Press     
         0   0.79721473    -6.3709484      0             -5.178448       7.5340433    
      5000   0.8075831     -6.302252       0             -5.0942422      7.8007256    
     10000   0.83593505    -6.3911844      0             -5.1407649      7.2057709    
     15000   0.77068474    -6.3736778      0             -5.2208619      7.5301355    
     20000   0.82860144    -6.397476       0             -5.1580264      7.3765141    
     25000   0.81056752    -6.460483       0             -5.2480091      6.9763775    
     30000   0.79873513    -6.2496761      0             -5.0549015      8.2510712    
     35000   0.79533586    -6.3200884      0             -5.1303986      7.6759778    
     37500   0.86575651    -6.3634456      0             -5.0684182      7.6232544    
Loop time of 4.00599 on 4 procs for 37500 steps with 360 atoms

Performance: 1617578.776 tau/day, 9360.988 timesteps/s, 3.370 Matom-step/s
98.9% CPU use with 4 MPI tasks x 1 OpenMP threads

MPI task timing breakdown:
Section |  min time  |  avg time  |  max time  |%varavg| %total
---------------------------------------------------------------
Pair    | 1.9076     | 1.9527     | 1.9747     |   1.9 | 48.74
Neigh   | 0.15293    | 0.15466    | 0.15578    |   0.3 |  3.86
Comm    | 1.5624     | 1.6468     | 1.758      |   6.0 | 41.11
Output  | 0.034239   | 0.038192   | 0.046456   |   2.5 |  0.95
Modify  | 0.10031    | 0.16539    | 0.22759    |  14.1 |  4.13
Other   |            | 0.04826    |            |       |  1.20

Nlocal:             90 ave          93 max          87 min
Histogram: 1 1 0 0 0 0 0 0 1 1
Nghost:        1226.25 ave        1242 max        1218 min
Histogram: 2 0 0 1 0 0 0 0 0 1
Neighs:         5206.5 ave        5287 max        5146 min
Histogram: 1 1 0 0 0 0 1 0 0 1

Total # of neighbors = 20826
Ave neighs/atom = 57.85
Neighbor list builds = 899
Dangerous builds = 0
Total wall time: 0:00:04
