
include ${pot}.lmp
include kalj.lmp
units lj
atom_style atomic

variable dimensions equal 3
variable density equal 1.2
variable fraca equal 0.8

dimension ${dimensions}
dimension 3
read_restart ${prevbasename}.final.lmprestart.${steps}
read_restart equil/kalj_T0.9_n360_v300_150000_1.final.lmprestart.${steps}
read_restart equil/kalj_T0.9_n360_v300_150000_1.final.lmprestart.150000
Reading restart file ...
  restart file = 15 Sep 2022, LAMMPS = 15 Sep 2022
  restoring atom style atomic from restart
  orthogonal box = (0 0 0) to (6.6943295 6.6943295 6.6943295)
  1 by 2 by 2 MPI processor grid
  restoring pair style lj/cut from restart
  360 atoms
  read_restart CPU = 0.062 seconds
include ${pot}_particles.lmp
include kalj_particles.lmp
mass * 1.0 #  set mass 1.0 for all types

pair_style lj/cut 2.5
#pair coeffs type1 type2 eps sigma
pair_coeff 1 1 1.0 1.00 2.5
pair_coeff 1 2 1.5 0.80 2.0
pair_coeff 2 2 0.5 0.88 2.2
pair_modify shift yes
reset_timestep 0

print "Setting up equilibration run"
Setting up equilibration run
variable dumptime2 equal ${steps}/2000
variable dumptime2 equal 150000/2000
dump 1 all dcd ${dumptime2} ${basename}.unwrap.dcd
dump 1 all dcd 75 ${basename}.unwrap.dcd
dump 1 all dcd 75 prod/kalj_T0.9_n360_v300_prod_150000_1.unwrap.dcd
#dump 2 all dcd ${dumptime2} ${basename}.dcd
dump_modify 1 unwrap yes
#dump_modify 2 unwrap no

restart ${restarttime} ${basename}.restart
restart 150000 ${basename}.restart
restart 150000 prod/kalj_T0.9_n360_v300_prod_150000_1.restart
restart ${steps} ${basename}.final.lmprestart
restart 150000 ${basename}.final.lmprestart
restart 150000 prod/kalj_T0.9_n360_v300_prod_150000_1.final.lmprestart

thermo ${thermotime}
thermo 5000
timestep ${timestep}
timestep 0.002

neighbor 0.5 bin
neigh_modify every 1 delay ${neighborstep} check yes
neigh_modify every 1 delay 25 check yes

#velocity all create ${temp} ${id} dist gaussian
fix 1 all nvt temp ${temp} ${temp} ${taut}
fix 1 all nvt temp 0.9 ${temp} ${taut}
fix 1 all nvt temp 0.9 0.9 ${taut}
fix 1 all nvt temp 0.9 0.9 0.2
Resetting global fix info from restart file:
  fix style: nvt, fix ID: 1

variable steps4 equal ${steps}/4
variable steps4 equal 150000/4
run ${steps4}
run 37500
Generated 0 of 1 mixed pair_coeff terms from geometric mixing rule
All restart file global fix info was re-assigned
Neighbor list info ...
  update: every = 1 steps, delay = 25 steps, check = yes
  max neighbors/atom: 2000, page size: 100000
  master list distance cutoff = 3
  ghost atom cutoff = 3
  binsize = 1.5, bins = 5 5 5
  1 neighbor lists, perpetual/occasional/extra = 1 0 0
  (1) pair lj/cut, perpetual
      attributes: half, newton on
      pair build: half/bin/atomonly/newton
      stencil: half/bin/3d
      bin: standard
Per MPI rank memory allocation (min/avg/max) = 3.138 | 3.138 | 3.138 Mbytes
   Step          Temp          E_pair         E_mol          TotEng         Press     
         0   0.88861531    -6.3025821      0             -4.9733617      7.8465876    
      5000   0.95493375    -6.1089055      0             -4.6804837      9.2684081    
     10000   0.89309191    -6.1767004      0             -4.8407837      8.7605458    
     15000   0.90924052    -6.1456691      0             -4.7855968      9.1101032    
     20000   0.90303738    -6.2300842      0             -4.8792908      8.7440085    
     25000   0.89788155    -6.3097018      0             -4.9666206      7.9651865    
     30000   0.9337054     -6.1024592      0             -4.7057915      9.2859593    
     35000   0.92990474    -6.1772098      0             -4.7862273      8.5768101    
     37500   0.85083997    -6.189028       0             -4.9163132      8.5345185    
Loop time of 4.01088 on 4 procs for 37500 steps with 360 atoms

Performance: 1615605.890 tau/day, 9349.571 timesteps/s, 3.366 Matom-step/s
99.3% CPU use with 4 MPI tasks x 1 OpenMP threads

MPI task timing breakdown:
Section |  min time  |  avg time  |  max time  |%varavg| %total
---------------------------------------------------------------
Pair    | 1.9525     | 1.9644     | 1.9826     |   0.9 | 48.98
Neigh   | 0.16564    | 0.16856    | 0.17511    |   0.9 |  4.20
Comm    | 1.5399     | 1.6317     | 1.7103     |   5.8 | 40.68
Output  | 0.029853   | 0.03379    | 0.041876   |   2.6 |  0.84
Modify  | 0.10138    | 0.16696    | 0.23027    |  14.3 |  4.16
Other   |            | 0.04546    |            |       |  1.13

Nlocal:             90 ave          94 max          83 min
Histogram: 1 0 0 0 0 0 1 0 0 2
Nghost:           1236 ave        1251 max        1220 min
Histogram: 1 0 0 0 1 1 0 0 0 1
Neighs:        5188.75 ave        5414 max        4811 min
Histogram: 1 0 0 0 0 1 0 0 0 2

Total # of neighbors = 20755
Ave neighs/atom = 57.652778
Neighbor list builds = 963
Dangerous builds = 1
Total wall time: 0:00:04
