
include ${pot}.lmp
include kalj.lmp
units lj
atom_style atomic

variable dimensions equal 3
variable density equal 1.2
variable fraca equal 0.8

dimension ${dimensions}
dimension 3
read_restart ${prevbasename}.final.lmprestart.${steps}
read_restart equil/kalj_T0.45_n360_v300_100000000_1.final.lmprestart.${steps}
read_restart equil/kalj_T0.45_n360_v300_100000000_1.final.lmprestart.100000000
Reading restart file ...
  restart file = 15 Sep 2022, LAMMPS = 15 Sep 2022
  restoring atom style atomic from restart
  orthogonal box = (0 0 0) to (6.6943295 6.6943295 6.6943295)
  1 by 2 by 2 MPI processor grid
  restoring pair style lj/cut from restart
  360 atoms
  read_restart CPU = 0.013 seconds
include ${pot}_particles.lmp
include kalj_particles.lmp
mass * 1.0 #  set mass 1.0 for all types

pair_style lj/cut 2.5
#pair coeffs type1 type2 eps sigma
pair_coeff 1 1 1.0 1.00 2.5
pair_coeff 1 2 1.5 0.80 2.0
pair_coeff 2 2 0.5 0.88 2.2
pair_modify shift yes
reset_timestep 0

print "Setting up equilibration run"
Setting up equilibration run
variable dumptime2 equal ${steps}/2000
variable dumptime2 equal 100000000/2000
dump 1 all dcd ${dumptime2} ${basename}.unwrap.dcd
dump 1 all dcd 50000 ${basename}.unwrap.dcd
dump 1 all dcd 50000 prod/kalj_T0.45_n360_v300_prod_100000000_1.unwrap.dcd
#dump 2 all dcd ${dumptime2} ${basename}.dcd
dump_modify 1 unwrap yes
#dump_modify 2 unwrap no

restart ${restarttime} ${basename}.restart
restart 100000000 ${basename}.restart
restart 100000000 prod/kalj_T0.45_n360_v300_prod_100000000_1.restart
restart ${steps} ${basename}.final.lmprestart
restart 100000000 ${basename}.final.lmprestart
restart 100000000 prod/kalj_T0.45_n360_v300_prod_100000000_1.final.lmprestart

thermo ${thermotime}
thermo 1000000
timestep ${timestep}
timestep 0.003

neighbor 0.5 bin
neigh_modify every 1 delay ${neighborstep} check yes
neigh_modify every 1 delay 25 check yes

#velocity all create ${temp} ${id} dist gaussian
fix 1 all nvt temp ${temp} ${temp} ${taut}
fix 1 all nvt temp 0.45 ${temp} ${taut}
fix 1 all nvt temp 0.45 0.45 ${taut}
fix 1 all nvt temp 0.45 0.45 0.3
Resetting global fix info from restart file:
  fix style: nvt, fix ID: 1

variable steps4 equal ${steps}/4
variable steps4 equal 100000000/4
run ${steps4}
run 25000000
Generated 0 of 1 mixed pair_coeff terms from geometric mixing rule
All restart file global fix info was re-assigned
Neighbor list info ...
  update: every = 1 steps, delay = 25 steps, check = yes
  max neighbors/atom: 2000, page size: 100000
  master list distance cutoff = 3
  ghost atom cutoff = 3
  binsize = 1.5, bins = 5 5 5
  1 neighbor lists, perpetual/occasional/extra = 1 0 0
  (1) pair lj/cut, perpetual
      attributes: half, newton on
      pair build: half/bin/atomonly/newton
      stencil: half/bin/3d
      bin: standard
Per MPI rank memory allocation (min/avg/max) = 3.137 | 3.138 | 3.138 Mbytes
   Step          Temp          E_pair         E_mol          TotEng         Press     
         0   0.47837059    -7.0381222      0             -6.3225595      3.066904     
   1000000   0.48093066    -7.12631        0             -6.4069179      2.3430451    
   2000000   0.45594355    -7.0560997      0             -6.3740842      2.9128527    
   3000000   0.41995019    -6.9718344      0             -6.343659       3.447644     
   4000000   0.42907025    -6.9520977      0             -6.3102802      3.3909754    
   5000000   0.4457254     -6.9691582      0             -6.3024273      3.1943417    
   6000000   0.43059223    -7.005835       0             -6.3617408      3.136454     
   7000000   0.46470879    -6.9190518      0             -6.2239249      3.6588776    
   8000000   0.483211      -7.026481       0             -6.3036779      2.941041     
   9000000   0.4403291     -6.9910239      0             -6.3323649      3.2717908    
  10000000   0.45417331    -6.9965089      0             -6.3171414      3.2261798    
  11000000   0.46840002    -7.0178943      0             -6.317246       2.9939309    
  12000000   0.45622727    -6.9822201      0             -6.2997802      3.1292713    
  13000000   0.44257265    -7.0506472      0             -6.3886323      2.6663203    
  14000000   0.46128627    -6.987463       0             -6.2974556      3.2569161    
  15000000   0.46703193    -6.9886037      0             -6.2900017      3.1767337    
  16000000   0.48163161    -7.0267521      0             -6.3063115      3.0604533    
  17000000   0.41752351    -6.962752       0             -6.3382065      3.3592633    
  18000000   0.45057135    -6.9897339      0             -6.3157542      3.2540221    
  19000000   0.44952785    -7.0101096      0             -6.3376908      3.1136894    
  20000000   0.44443398    -6.9638106      0             -6.2990115      3.3528471    
  21000000   0.47878898    -6.9647361      0             -6.2485476      3.3752426    
  22000000   0.45154005    -7.0355187      0             -6.36009        2.8769882    
  23000000   0.47246531    -6.9460825      0             -6.2393532      3.6863853    
  24000000   0.41952281    -7.094321       0             -6.4667848      2.4523719    
  25000000   0.44061808    -7.0068095      0             -6.3477183      3.0581498    
Loop time of 2630.88 on 4 procs for 25000000 steps with 360 atoms

Performance: 2463050.384 tau/day, 9502.509 timesteps/s, 3.421 Matom-step/s
99.6% CPU use with 4 MPI tasks x 1 OpenMP threads

MPI task timing breakdown:
Section |  min time  |  avg time  |  max time  |%varavg| %total
---------------------------------------------------------------
Pair    | 1263.7     | 1303.7     | 1357       |  95.1 | 49.55
Neigh   | 103.87     | 106.97     | 111.17     |  25.5 |  4.07
Comm    | 1048.7     | 1084.3     | 1142.2     | 111.2 | 41.22
Output  | 0.049739   | 0.054291   | 0.064116   |   2.5 |  0.00
Modify  | 64.994     | 106.73     | 145.58     | 349.0 |  4.06
Other   |            | 29.1       |            |       |  1.11

Nlocal:             90 ave          94 max          86 min
Histogram: 1 0 0 0 0 2 0 0 0 1
Nghost:           1237 ave        1248 max        1229 min
Histogram: 2 0 0 0 0 0 1 0 0 1
Neighs:        5195.25 ave        5452 max        5017 min
Histogram: 1 1 0 0 1 0 0 0 0 1

Total # of neighbors = 20781
Ave neighs/atom = 57.725
Neighbor list builds = 617988
Dangerous builds = 377
Total wall time: 0:43:50
