
include ${pot}.lmp
include kalj.lmp
units lj
atom_style atomic

variable dimensions equal 3
variable density equal 1.2
variable fraca equal 0.8

dimension ${dimensions}
dimension 3
read_restart ${prevbasename}.final.lmprestart.${steps}
read_restart equil/kalj_T1_n360_v300_50000_1.final.lmprestart.${steps}
read_restart equil/kalj_T1_n360_v300_50000_1.final.lmprestart.50000
Reading restart file ...
  restart file = 15 Sep 2022, LAMMPS = 15 Sep 2022
  restoring atom style atomic from restart
  orthogonal box = (0 0 0) to (6.6943295 6.6943295 6.6943295)
  1 by 2 by 2 MPI processor grid
  restoring pair style lj/cut from restart
  360 atoms
  read_restart CPU = 0.010 seconds
include ${pot}_particles.lmp
include kalj_particles.lmp
mass * 1.0 #  set mass 1.0 for all types

pair_style lj/cut 2.5
#pair coeffs type1 type2 eps sigma
pair_coeff 1 1 1.0 1.00 2.5
pair_coeff 1 2 1.5 0.80 2.0
pair_coeff 2 2 0.5 0.88 2.2
pair_modify shift yes
reset_timestep 0

print "Setting up equilibration run"
Setting up equilibration run
variable dumptime2 equal ${steps}/2000
variable dumptime2 equal 50000/2000
dump 1 all dcd ${dumptime2} ${basename}.unwrap.dcd
dump 1 all dcd 25 ${basename}.unwrap.dcd
dump 1 all dcd 25 prod/kalj_T1_n360_v300_prod_50000_1.unwrap.dcd
#dump 2 all dcd ${dumptime2} ${basename}.dcd
dump_modify 1 unwrap yes
#dump_modify 2 unwrap no

restart ${restarttime} ${basename}.restart
restart 30000 ${basename}.restart
restart 30000 prod/kalj_T1_n360_v300_prod_50000_1.restart
restart ${steps} ${basename}.final.lmprestart
restart 50000 ${basename}.final.lmprestart
restart 50000 prod/kalj_T1_n360_v300_prod_50000_1.final.lmprestart

thermo ${thermotime}
thermo 2000
timestep ${timestep}
timestep 0.002

neighbor 0.5 bin
neigh_modify every 1 delay ${neighborstep} check yes
neigh_modify every 1 delay 20 check yes

#velocity all create ${temp} ${id} dist gaussian
fix 1 all nvt temp ${temp} ${temp} ${taut}
fix 1 all nvt temp 1 ${temp} ${taut}
fix 1 all nvt temp 1 1 ${taut}
fix 1 all nvt temp 1 1 0.2
Resetting global fix info from restart file:
  fix style: nvt, fix ID: 1

variable steps4 equal ${steps}/4
variable steps4 equal 50000/4
run ${steps4}
run 12500
Generated 0 of 1 mixed pair_coeff terms from geometric mixing rule
All restart file global fix info was re-assigned
Neighbor list info ...
  update: every = 1 steps, delay = 20 steps, check = yes
  max neighbors/atom: 2000, page size: 100000
  master list distance cutoff = 3
  ghost atom cutoff = 3
  binsize = 1.5, bins = 5 5 5
  1 neighbor lists, perpetual/occasional/extra = 1 0 0
  (1) pair lj/cut, perpetual
      attributes: half, newton on
      pair build: half/bin/atomonly/newton
      stencil: half/bin/3d
      bin: standard
Per MPI rank memory allocation (min/avg/max) = 3.138 | 3.138 | 3.138 Mbytes
   Step          Temp          E_pair         E_mol          TotEng         Press     
         0   0.91278414    -5.9719864      0             -4.6066135      10.150824    
      2000   1.0137509     -5.9636553      0             -4.4472529      10.291456    
      4000   1.0231811     -5.9835442      0             -4.4530358      10.18535     
      6000   0.97379182    -6.076916       0             -4.6202858      9.4690169    
      8000   1.0404767     -6.0786265      0             -4.5222467      9.408344     
     10000   0.96984552    -5.8816127      0             -4.4308855      10.742728    
     12000   0.94108796    -5.9480023      0             -4.5402916      10.151592    
     12500   0.99057559    -6.0208493      0             -4.5391133      9.8001704    
Loop time of 1.39887 on 4 procs for 12500 steps with 360 atoms

Performance: 1544108.066 tau/day, 8935.811 timesteps/s, 3.217 Matom-step/s
99.0% CPU use with 4 MPI tasks x 1 OpenMP threads

MPI task timing breakdown:
Section |  min time  |  avg time  |  max time  |%varavg| %total
---------------------------------------------------------------
Pair    | 0.64485    | 0.66106    | 0.67158    |   1.2 | 47.26
Neigh   | 0.058714   | 0.059459   | 0.060802   |   0.3 |  4.25
Comm    | 0.56039    | 0.58102    | 0.59943    |   2.0 | 41.54
Output  | 0.019843   | 0.023201   | 0.030059   |   2.7 |  1.66
Modify  | 0.034042   | 0.054745   | 0.074968   |   7.9 |  3.91
Other   |            | 0.01938    |            |       |  1.39

Nlocal:             90 ave          95 max          81 min
Histogram: 1 0 0 0 0 0 0 1 1 1
Nghost:        1237.75 ave        1257 max        1221 min
Histogram: 1 0 0 0 2 0 0 0 0 1
Neighs:        5199.25 ave        5559 max        4696 min
Histogram: 1 0 0 0 0 0 1 1 0 1

Total # of neighbors = 20797
Ave neighs/atom = 57.769444
Neighbor list builds = 343
Dangerous builds = 0
Total wall time: 0:00:01
