
include ${pot}.lmp
include kalj.lmp
units lj
atom_style atomic

variable dimensions equal 3
variable density equal 1.2
variable fraca equal 0.8

dimension ${dimensions}
dimension 3
read_restart ${prevbasename}.final.lmprestart.${steps}
read_restart equil/kalj_T0.7_n360_v300_180000_1.final.lmprestart.${steps}
read_restart equil/kalj_T0.7_n360_v300_180000_1.final.lmprestart.180000
Reading restart file ...
  restart file = 15 Sep 2022, LAMMPS = 15 Sep 2022
  restoring atom style atomic from restart
  orthogonal box = (0 0 0) to (6.6943295 6.6943295 6.6943295)
  1 by 2 by 2 MPI processor grid
  restoring pair style lj/cut from restart
  360 atoms
  read_restart CPU = 0.055 seconds
include ${pot}_particles.lmp
include kalj_particles.lmp
mass * 1.0 #  set mass 1.0 for all types

pair_style lj/cut 2.5
#pair coeffs type1 type2 eps sigma
pair_coeff 1 1 1.0 1.00 2.5
pair_coeff 1 2 1.5 0.80 2.0
pair_coeff 2 2 0.5 0.88 2.2
pair_modify shift yes
reset_timestep 0

print "Setting up equilibration run"
Setting up equilibration run
variable dumptime2 equal ${steps}/2000
variable dumptime2 equal 180000/2000
dump 1 all dcd ${dumptime2} ${basename}.unwrap.dcd
dump 1 all dcd 90 ${basename}.unwrap.dcd
dump 1 all dcd 90 prod/kalj_T0.7_n360_v300_prod_180000_1.unwrap.dcd
#dump 2 all dcd ${dumptime2} ${basename}.dcd
dump_modify 1 unwrap yes
#dump_modify 2 unwrap no

restart ${restarttime} ${basename}.restart
restart 180000 ${basename}.restart
restart 180000 prod/kalj_T0.7_n360_v300_prod_180000_1.restart
restart ${steps} ${basename}.final.lmprestart
restart 180000 ${basename}.final.lmprestart
restart 180000 prod/kalj_T0.7_n360_v300_prod_180000_1.final.lmprestart

thermo ${thermotime}
thermo 6000
timestep ${timestep}
timestep 0.003

neighbor 0.5 bin
neigh_modify every 1 delay ${neighborstep} check yes
neigh_modify every 1 delay 25 check yes

#velocity all create ${temp} ${id} dist gaussian
fix 1 all nvt temp ${temp} ${temp} ${taut}
fix 1 all nvt temp 0.7 ${temp} ${taut}
fix 1 all nvt temp 0.7 0.7 ${taut}
fix 1 all nvt temp 0.7 0.7 0.3
Resetting global fix info from restart file:
  fix style: nvt, fix ID: 1

variable steps4 equal ${steps}/4
variable steps4 equal 180000/4
run ${steps4}
run 45000
Generated 0 of 1 mixed pair_coeff terms from geometric mixing rule
All restart file global fix info was re-assigned
Neighbor list info ...
  update: every = 1 steps, delay = 25 steps, check = yes
  max neighbors/atom: 2000, page size: 100000
  master list distance cutoff = 3
  ghost atom cutoff = 3
  binsize = 1.5, bins = 5 5 5
  1 neighbor lists, perpetual/occasional/extra = 1 0 0
  (1) pair lj/cut, perpetual
      attributes: half, newton on
      pair build: half/bin/atomonly/newton
      stencil: half/bin/3d
      bin: standard
Per MPI rank memory allocation (min/avg/max) = 3.139 | 3.139 | 3.14 Mbytes
   Step          Temp          E_pair         E_mol          TotEng         Press     
         0   0.69204952    -6.5286629      0             -5.4934721      6.3091083    
      6000   0.70018464    -6.6084396      0             -5.5610801      5.8790488    
     12000   0.62708303    -6.4895147      0             -5.551503       6.6816564    
     18000   0.6990067     -6.4692065      0             -5.423609       6.8083331    
     24000   0.69095505    -6.542074       0             -5.5085204      6.3732256    
     30000   0.76006011    -6.4691689      0             -5.3322456      6.8723116    
     36000   0.73863622    -6.5776576      0             -5.4727809      6.150968     
     42000   0.78366573    -6.5085707      0             -5.3363374      6.736476     
     45000   0.68559539    -6.5629172      0             -5.5373807      6.1975968    
Loop time of 4.77868 on 4 procs for 45000 steps with 360 atoms

Performance: 2440841.463 tau/day, 9416.827 timesteps/s, 3.390 Matom-step/s
99.4% CPU use with 4 MPI tasks x 1 OpenMP threads

MPI task timing breakdown:
Section |  min time  |  avg time  |  max time  |%varavg| %total
---------------------------------------------------------------
Pair    | 2.2962     | 2.36       | 2.463      |   4.1 | 49.39
Neigh   | 0.24819    | 0.25267    | 0.2605     |   0.9 |  5.29
Comm    | 1.7165     | 1.9013     | 2.0416     |   8.7 | 39.79
Output  | 0.031478   | 0.035453   | 0.043717   |   2.6 |  0.74
Modify  | 0.11517    | 0.18741    | 0.25632    |  14.3 |  3.92
Other   |            | 0.04188    |            |       |  0.88

Nlocal:             90 ave          95 max          82 min
Histogram: 1 0 0 0 0 0 1 1 0 1
Nghost:        1245.75 ave        1261 max        1222 min
Histogram: 1 0 0 0 0 0 1 1 0 1
Neighs:         5193.5 ave        5627 max        4646 min
Histogram: 1 0 0 0 0 1 1 0 0 1

Total # of neighbors = 20774
Ave neighs/atom = 57.705556
Neighbor list builds = 1476
Dangerous builds = 105
Total wall time: 0:00:04
