
include ${pot}.lmp
include kalj.lmp
units lj
atom_style atomic

variable dimensions equal 3
variable density equal 1.2
variable fraca equal 0.8

dimension ${dimensions}
dimension 3
read_restart ${prevbasename}.final.lmprestart.${prevsteps}
read_restart equil/kalj_T0.475_n360_v300_30000000_1.final.lmprestart.${prevsteps}
read_restart equil/kalj_T0.475_n360_v300_30000000_1.final.lmprestart.30000000
Reading restart file ...
  restart file = 15 Sep 2022, LAMMPS = 15 Sep 2022
  restoring atom style atomic from restart
  orthogonal box = (0 0 0) to (6.6943295 6.6943295 6.6943295)
  1 by 2 by 2 MPI processor grid
  restoring pair style lj/cut from restart
  360 atoms
  read_restart CPU = 0.001 seconds
include ${pot}_particles.lmp
include kalj_particles.lmp
mass * 1.0 #  set mass 1.0 for all types

pair_style lj/cut 2.5
#pair coeffs type1 type2 eps sigma
pair_coeff 1 1 1.0 1.00 2.5
pair_coeff 1 2 1.5 0.80 2.0
pair_coeff 2 2 0.5 0.88 2.2
pair_modify shift yes
reset_timestep 0

print "Setting up annealing run"
Setting up annealing run
dump 1 all atom ${dumptime} ${basename}.lammpstrj
dump 1 all atom 10000000 ${basename}.lammpstrj
dump 1 all atom 10000000 equil/kalj_T0.45_n360_v300_100000000_1.lammpstrj
#dump_modify 1 sort id scale no

restart ${restarttime} ${basename}.restart
restart 100000000 ${basename}.restart
restart 100000000 equil/kalj_T0.45_n360_v300_100000000_1.restart
restart ${steps} ${basename}.final.lmprestart
restart 100000000 ${basename}.final.lmprestart
restart 100000000 equil/kalj_T0.45_n360_v300_100000000_1.final.lmprestart

thermo ${thermotime}
thermo 1000000
timestep ${timestep}
timestep 0.003

neighbor 0.5 bin
neigh_modify every 1 delay ${neighborstep} check yes
neigh_modify every 1 delay 25 check yes

velocity all create ${temp} ${id} dist gaussian
velocity all create 0.45 ${id} dist gaussian
velocity all create 0.45 1 dist gaussian
fix 1 all nvt temp ${temp} ${temp} ${taut}
fix 1 all nvt temp 0.45 ${temp} ${taut}
fix 1 all nvt temp 0.45 0.45 ${taut}
fix 1 all nvt temp 0.45 0.45 0.3
Resetting global fix info from restart file:
  fix style: nvt, fix ID: 1
run ${steps}
run 100000000
Generated 0 of 1 mixed pair_coeff terms from geometric mixing rule
All restart file global fix info was re-assigned
Neighbor list info ...
  update: every = 1 steps, delay = 25 steps, check = yes
  max neighbors/atom: 2000, page size: 100000
  master list distance cutoff = 3
  ghost atom cutoff = 3
  binsize = 1.5, bins = 5 5 5
  1 neighbor lists, perpetual/occasional/extra = 1 0 0
  (1) pair lj/cut, perpetual
      attributes: half, newton on
      pair build: half/bin/atomonly/newton
      stencil: half/bin/3d
      bin: standard
Per MPI rank memory allocation (min/avg/max) = 4.115 | 4.115 | 4.115 Mbytes
   Step          Temp          E_pair         E_mol          TotEng         Press     
         0   0.45          -6.9715618      0             -6.2984368      3.344253     
   1000000   0.46168368    -7.0398976      0             -6.3492958      3.0408965    
   2000000   0.45666793    -6.9483495      0             -6.2652504      3.3705403    
   3000000   0.48822262    -7.0279827      0             -6.297683       2.9446875    
   4000000   0.43672526    -6.9938909      0             -6.3406227      3.0806449    
   5000000   0.47496844    -7.0300045      0             -6.3195308      2.8918256    
   6000000   0.46420262    -6.9750573      0             -6.2806876      3.3547115    
   7000000   0.4492163     -7.0494554      0             -6.3775027      2.8227257    
   8000000   0.42232981    -7.0161627      0             -6.3844277      3.0774767    
   9000000   0.47657789    -7.0504297      0             -6.3375486      2.8669783    
  10000000   0.45954362    -6.9985521      0             -6.3111515      3.0714639    
  11000000   0.4603288     -6.9925389      0             -6.3039638      2.9653575    
  12000000   0.45387131    -6.9731844      0             -6.2942685      3.3600352    
  13000000   0.43573258    -7.0372497      0             -6.3854663      2.93279      
  14000000   0.43399852    -7.0142456      0             -6.3650561      2.9859499    
  15000000   0.43099962    -7.0285781      0             -6.3838745      2.9115187    
  16000000   0.43053012    -7.0347524      0             -6.3907511      3.0613453    
  17000000   0.43124881    -6.9796775      0             -6.3346011      3.1474527    
  18000000   0.43481859    -6.9733937      0             -6.3229775      3.3639084    
  19000000   0.41585089    -6.9555598      0             -6.3335162      3.3276267    
  20000000   0.45293678    -6.9997486      0             -6.3222307      3.0752956    
  21000000   0.46178845    -6.977453       0             -6.2866944      3.202648     
  22000000   0.43301181    -6.9986089      0             -6.3508954      3.0018371    
  23000000   0.46280211    -6.954124       0             -6.2618492      3.3775918    
  24000000   0.44810119    -6.9791571      0             -6.3088724      3.2760718    
  25000000   0.49098366    -6.9746962      0             -6.2402665      3.3696409    
  26000000   0.47213541    -6.9766559      0             -6.27042        3.3142013    
  27000000   0.43394223    -6.9650928      0             -6.3159876      3.3356067    
  28000000   0.47792337    -6.9543996      0             -6.2395059      3.3993339    
  29000000   0.42346588    -7.0039317      0             -6.3704974      3.1553194    
  30000000   0.48448833    -6.9968234      0             -6.2721096      3.2191263    
  31000000   0.43743807    -7.0080578      0             -6.3537233      3.0717993    
  32000000   0.44638351    -6.9389558      0             -6.2712405      3.5267982    
  33000000   0.46505345    -7.0471774      0             -6.351535       2.7987666    
  34000000   0.47020714    -7.0429597      0             -6.3396082      2.8968695    
  35000000   0.4411801     -7.011612       0             -6.3516801      3.15615      
  36000000   0.45596237    -7.0828699      0             -6.4008262      2.7577777    
  37000000   0.46552136    -7.0020357      0             -6.3056934      3.0885855    
  38000000   0.46854471    -6.9922903      0             -6.2914255      3.2774439    
  39000000   0.43996056    -6.9998206      0             -6.341713       3.0710408    
  40000000   0.4292902     -7.0054896      0             -6.363343       2.9815524    
  41000000   0.45996262    -6.9918156      0             -6.3037882      3.2683898    
  42000000   0.4592448     -6.9856209      0             -6.2986672      3.2111749    
  43000000   0.45079408    -6.9951679      0             -6.3208551      3.118062     
  44000000   0.47331988    -6.9949058      0             -6.2868981      3.1925756    
  45000000   0.48714637    -7.0367532      0             -6.3080634      3.0062585    
  46000000   0.46249563    -6.9904088      0             -6.2985925      3.3383676    
  47000000   0.46435075    -7.01584        0             -6.3212487      3.2029414    
  48000000   0.4575085     -6.9940559      0             -6.3096994      3.2428742    
  49000000   0.45202357    -7.0165978      0             -6.3404459      3.019177     
  50000000   0.4633277     -6.9454274      0             -6.2523664      3.717544     
  51000000   0.44267974    -7.0422815      0             -6.3801064      2.7839665    
  52000000   0.44820487    -7.0451172      0             -6.3746774      2.7814518    
  53000000   0.42778745    -7.0003264      0             -6.3604276      3.0094583    
  54000000   0.46093652    -7.0614516      0             -6.3719673      2.7746632    
  55000000   0.45966125    -7.0423865      0             -6.3548099      3.0036332    
  56000000   0.45348211    -7.0657342      0             -6.3874006      2.6944027    
  57000000   0.457529      -7.0428139      0             -6.3584267      2.7922952    
  58000000   0.4587947     -7.0689268      0             -6.3826464      2.6144964    
  59000000   0.44214055    -7.037841       0             -6.3764725      2.8588541    
  60000000   0.46496018    -7.0215476      0             -6.3260447      3.1077191    
  61000000   0.44041757    -7.0381708      0             -6.3793795      2.9999082    
  62000000   0.46705349    -7.0432535      0             -6.3446194      2.8462363    
  63000000   0.45897098    -7.0383259      0             -6.3517818      2.9775846    
  64000000   0.43242178    -7.0770009      0             -6.43017        2.6250309    
  65000000   0.43556316    -7.0438274      0             -6.3922975      2.8905872    
  66000000   0.45696201    -7.0425937      0             -6.3590547      3.0026874    
  67000000   0.46831227    -7.0684138      0             -6.3678967      2.7640862    
  68000000   0.44097537    -7.0714537      0             -6.411828       2.6222998    
  69000000   0.44465022    -7.0621673      0             -6.3970447      2.812697     
  70000000   0.42445232    -7.0117459      0             -6.376836       3.0478678    
  71000000   0.46481676    -6.9540879      0             -6.2587995      3.4169212    
  72000000   0.43342421    -7.0418311      0             -6.3935007      2.9153867    
  73000000   0.4717387     -7.0518754      0             -6.3462329      2.8536048    
  74000000   0.47799533    -7.0021519      0             -6.2871505      3.0553965    
  75000000   0.47735787    -7.0334895      0             -6.3194417      3.0533709    
  76000000   0.43629446    -6.9866102      0             -6.3339864      3.2179384    
  77000000   0.46414627    -6.9795562      0             -6.2852707      3.4513443    
  78000000   0.43842288    -7.0149172      0             -6.3591096      3.1809424    
  79000000   0.45350949    -6.9905725      0             -6.3121979      3.2058772    
  80000000   0.459765      -6.9843811      0             -6.2966493      3.2442051    
  81000000   0.44151969    -7.0109766      0             -6.3505367      2.9606849    
  82000000   0.4435425     -7.0043333      0             -6.3408677      3.3008324    
  83000000   0.45206841    -7.0285157      0             -6.3522967      2.8730492    
  84000000   0.44964745    -7.0162092      0             -6.3436115      2.9829349    
  85000000   0.43465639    -7.0411986      0             -6.3910251      2.8605791    
  86000000   0.48104314    -7.0324856      0             -6.3129252      2.9276414    
  87000000   0.43794891    -7.0489806      0             -6.393882       2.7990029    
  88000000   0.40981492    -7.0185851      0             -6.4055703      3.0585694    
  89000000   0.4466499     -7.0115114      0             -6.3433976      3.1821095    
  90000000   0.46029215    -6.9856385      0             -6.2971181      3.2352211    
  91000000   0.47830475    -7.0265491      0             -6.311085       2.7963265    
  92000000   0.44869643    -7.0255583      0             -6.3543832      2.8944522    
  93000000   0.47945931    -7.079091       0             -6.3618998      2.7103348    
  94000000   0.43776999    -7.0580085      0             -6.4031776      2.774685     
  95000000   0.42412166    -7.0394403      0             -6.405025       2.9247415    
  96000000   0.46698941    -6.970796       0             -6.2722576      3.3596202    
  97000000   0.47275103    -6.9874678      0             -6.280311       3.2679894    
  98000000   0.47343652    -7.0723171      0             -6.3641349      2.6836906    
  99000000   0.44451048    -6.9853373      0             -6.3204237      3.2980013    
 100000000   0.47837059    -7.0381222      0             -6.3225595      3.066904     
Loop time of 8447.61 on 4 procs for 100000000 steps with 360 atoms

Performance: 3068321.849 tau/day, 11837.661 timesteps/s, 4.262 Matom-step/s
99.7% CPU use with 4 MPI tasks x 1 OpenMP threads

MPI task timing breakdown:
Section |  min time  |  avg time  |  max time  |%varavg| %total
---------------------------------------------------------------
Pair    | 5042.5     | 5181.1     | 5294.6     | 138.4 | 61.33
Neigh   | 419.54     | 425.81     | 433.94     |  26.0 |  5.04
Comm    | 2366.8     | 2483.3     | 2629.3     | 209.4 | 29.40
Output  | 0.29946    | 0.3001     | 0.30201    |   0.2 |  0.00
Modify  | 256.16     | 259.8      | 263.55     |  17.6 |  3.08
Other   |            | 97.29      |            |       |  1.15

Nlocal:             90 ave          92 max          88 min
Histogram: 1 0 1 0 0 0 0 1 0 1
Nghost:         1241.5 ave        1247 max        1231 min
Histogram: 1 0 0 0 0 0 0 1 1 1
Neighs:        5196.25 ave        5253 max        5100 min
Histogram: 1 0 0 0 0 0 1 0 1 1

Total # of neighbors = 20785
Ave neighs/atom = 57.736111
Neighbor list builds = 2472840
Dangerous builds = 1594
Total wall time: 2:20:47
