
include ${pot}.lmp
include kalj.lmp
units lj
atom_style atomic

variable dimensions equal 3
variable density equal 1.2
variable fraca equal 0.8

dimension ${dimensions}
dimension 3
read_restart ${prevbasename}.final.lmprestart.${prevsteps}
read_restart equil/kalj_T1_n360_v300_50000_1.final.lmprestart.${prevsteps}
read_restart equil/kalj_T1_n360_v300_50000_1.final.lmprestart.50000
Reading restart file ...
  restart file = 15 Sep 2022, LAMMPS = 15 Sep 2022
  restoring atom style atomic from restart
  orthogonal box = (0 0 0) to (6.6943295 6.6943295 6.6943295)
  1 by 2 by 2 MPI processor grid
  restoring pair style lj/cut from restart
  360 atoms
  read_restart CPU = 0.001 seconds
include ${pot}_particles.lmp
include kalj_particles.lmp
mass * 1.0 #  set mass 1.0 for all types

pair_style lj/cut 2.5
#pair coeffs type1 type2 eps sigma
pair_coeff 1 1 1.0 1.00 2.5
pair_coeff 1 2 1.5 0.80 2.0
pair_coeff 2 2 0.5 0.88 2.2
pair_modify shift yes
reset_timestep 0

print "Setting up annealing run"
Setting up annealing run
dump 1 all atom ${dumptime} ${basename}.lammpstrj
dump 1 all atom 50000 ${basename}.lammpstrj
dump 1 all atom 50000 equil/kalj_T0.9_n360_v300_150000_1.lammpstrj
#dump_modify 1 sort id scale no

restart ${restarttime} ${basename}.restart
restart 150000 ${basename}.restart
restart 150000 equil/kalj_T0.9_n360_v300_150000_1.restart
restart ${steps} ${basename}.final.lmprestart
restart 150000 ${basename}.final.lmprestart
restart 150000 equil/kalj_T0.9_n360_v300_150000_1.final.lmprestart

thermo ${thermotime}
thermo 5000
timestep ${timestep}
timestep 0.002

neighbor 0.5 bin
neigh_modify every 1 delay ${neighborstep} check yes
neigh_modify every 1 delay 25 check yes

velocity all create ${temp} ${id} dist gaussian
velocity all create 0.9 ${id} dist gaussian
velocity all create 0.9 1 dist gaussian
fix 1 all nvt temp ${temp} ${temp} ${taut}
fix 1 all nvt temp 0.9 ${temp} ${taut}
fix 1 all nvt temp 0.9 0.9 ${taut}
fix 1 all nvt temp 0.9 0.9 0.2
Resetting global fix info from restart file:
  fix style: nvt, fix ID: 1
run ${steps}
run 150000
Generated 0 of 1 mixed pair_coeff terms from geometric mixing rule
All restart file global fix info was re-assigned
Neighbor list info ...
  update: every = 1 steps, delay = 25 steps, check = yes
  max neighbors/atom: 2000, page size: 100000
  master list distance cutoff = 3
  ghost atom cutoff = 3
  binsize = 1.5, bins = 5 5 5
  1 neighbor lists, perpetual/occasional/extra = 1 0 0
  (1) pair lj/cut, perpetual
      attributes: half, newton on
      pair build: half/bin/atomonly/newton
      stencil: half/bin/3d
      bin: standard
Per MPI rank memory allocation (min/avg/max) = 4.115 | 4.116 | 4.116 Mbytes
   Step          Temp          E_pair         E_mol          TotEng         Press     
         0   0.9           -5.9719864      0             -4.6257364      10.135526    
      5000   0.89610201    -6.2866794      0             -4.9462601      8.0225783    
     10000   0.92615863    -6.173644       0             -4.7882651      8.7770952    
     15000   0.91141635    -6.3329409      0             -4.9696139      7.9400159    
     20000   0.9893454     -6.1229445      0             -4.6430487      9.1076438    
     25000   0.89284263    -6.1795464      0             -4.8440026      8.7417138    
     30000   0.91667521    -6.1618545      0             -4.7906612      9.0401064    
     35000   0.94125722    -6.1349209      0             -4.7269569      8.94924      
     40000   0.90877465    -6.2267713      0             -4.8673959      8.6149349    
     45000   0.90666219    -6.223953       0             -4.8677374      8.5383277    
     50000   0.84837565    -6.1386563      0             -4.8696277      8.8222903    
     55000   0.8632571     -6.0917624      0             -4.8004737      9.2455099    
     60000   0.90082025    -6.2504997      0             -4.9030227      8.251641     
     65000   0.84311518    -6.181922       0             -4.9207622      8.4613579    
     70000   0.90975281    -6.226469       0             -4.8656305      8.5078136    
     75000   0.81900431    -6.2535476      0             -5.0284537      8.1729554    
     80000   0.86500582    -6.208734       0             -4.9148294      8.5122343    
     85000   0.82369618    -6.1685027      0             -4.9363905      8.7266708    
     90000   0.91906121    -6.1207083      0             -4.7459459      9.0655062    
     95000   0.89853969    -6.2170009      0             -4.8729353      8.4924962    
    100000   0.96529185    -6.174827       0             -4.7309113      8.9930361    
    105000   0.90637249    -6.196765       0             -4.8409828      8.6140706    
    110000   0.86454886    -6.1210461      0             -4.8278251      9.1768045    
    115000   0.96365968    -6.1935596      0             -4.7520853      8.735892     
    120000   0.96431366    -6.1117374      0             -4.6692848      9.4318067    
    125000   0.88130783    -6.2192181      0             -4.9009284      8.5349295    
    130000   0.91878248    -6.2108716      0             -4.8365262      8.5920628    
    135000   0.89427206    -6.1967499      0             -4.859068       8.5900316    
    140000   0.9076462     -6.1858228      0             -4.8281354      8.7602162    
    145000   0.91002655    -6.0679068      0             -4.7066587      9.430005     
    150000   0.88861531    -6.3025821      0             -4.9733617      7.8465876    
Loop time of 12.2988 on 4 procs for 150000 steps with 360 atoms

Performance: 2107518.047 tau/day, 12196.285 timesteps/s, 4.391 Matom-step/s
99.7% CPU use with 4 MPI tasks x 1 OpenMP threads

MPI task timing breakdown:
Section |  min time  |  avg time  |  max time  |%varavg| %total
---------------------------------------------------------------
Pair    | 7.614      | 7.7464     | 7.8589     |   3.2 | 62.99
Neigh   | 0.6494     | 0.65488    | 0.65702    |   0.4 |  5.32
Comm    | 3.2998     | 3.4097     | 3.5432     |   4.7 | 27.72
Output  | 0.0017066  | 0.0017877  | 0.0020257  |   0.3 |  0.01
Modify  | 0.34818    | 0.3527     | 0.35758    |   0.7 |  2.87
Other   |            | 0.1334     |            |       |  1.08

Nlocal:             90 ave          93 max          88 min
Histogram: 1 0 1 0 1 0 0 0 0 1
Nghost:         1233.5 ave        1240 max        1220 min
Histogram: 1 0 0 0 0 0 0 1 0 2
Neighs:           5184 ave        5382 max        5069 min
Histogram: 1 1 0 1 0 0 0 0 0 1

Total # of neighbors = 20736
Ave neighs/atom = 57.6
Neighbor list builds = 3842
Dangerous builds = 1
Total wall time: 0:00:12
