
include ${pot}.lmp
include kalj.lmp
units lj
atom_style atomic

variable dimensions equal 3
variable density equal 1.2
variable fraca equal 0.8

dimension ${dimensions}
dimension 3
read_restart ${prevbasename}.final.lmprestart.${prevsteps}
read_restart equil/kalj_T0.5_n360_v300_10000000_1.final.lmprestart.${prevsteps}
read_restart equil/kalj_T0.5_n360_v300_10000000_1.final.lmprestart.10000000
Reading restart file ...
  restart file = 15 Sep 2022, LAMMPS = 15 Sep 2022
  restoring atom style atomic from restart
  orthogonal box = (0 0 0) to (6.6943295 6.6943295 6.6943295)
  1 by 2 by 2 MPI processor grid
  restoring pair style lj/cut from restart
  360 atoms
  read_restart CPU = 0.002 seconds
include ${pot}_particles.lmp
include kalj_particles.lmp
mass * 1.0 #  set mass 1.0 for all types

pair_style lj/cut 2.5
#pair coeffs type1 type2 eps sigma
pair_coeff 1 1 1.0 1.00 2.5
pair_coeff 1 2 1.5 0.80 2.0
pair_coeff 2 2 0.5 0.88 2.2
pair_modify shift yes
reset_timestep 0

print "Setting up annealing run"
Setting up annealing run
dump 1 all atom ${dumptime} ${basename}.lammpstrj
dump 1 all atom 3000000 ${basename}.lammpstrj
dump 1 all atom 3000000 equil/kalj_T0.475_n360_v300_30000000_1.lammpstrj
#dump_modify 1 sort id scale no

restart ${restarttime} ${basename}.restart
restart 30000000 ${basename}.restart
restart 30000000 equil/kalj_T0.475_n360_v300_30000000_1.restart
restart ${steps} ${basename}.final.lmprestart
restart 30000000 ${basename}.final.lmprestart
restart 30000000 equil/kalj_T0.475_n360_v300_30000000_1.final.lmprestart

thermo ${thermotime}
thermo 300000
timestep ${timestep}
timestep 0.003

neighbor 0.5 bin
neigh_modify every 1 delay ${neighborstep} check yes
neigh_modify every 1 delay 25 check yes

velocity all create ${temp} ${id} dist gaussian
velocity all create 0.475 ${id} dist gaussian
velocity all create 0.475 1 dist gaussian
fix 1 all nvt temp ${temp} ${temp} ${taut}
fix 1 all nvt temp 0.475 ${temp} ${taut}
fix 1 all nvt temp 0.475 0.475 ${taut}
fix 1 all nvt temp 0.475 0.475 0.3
Resetting global fix info from restart file:
  fix style: nvt, fix ID: 1
run ${steps}
run 30000000
Generated 0 of 1 mixed pair_coeff terms from geometric mixing rule
All restart file global fix info was re-assigned
Neighbor list info ...
  update: every = 1 steps, delay = 25 steps, check = yes
  max neighbors/atom: 2000, page size: 100000
  master list distance cutoff = 3
  ghost atom cutoff = 3
  binsize = 1.5, bins = 5 5 5
  1 neighbor lists, perpetual/occasional/extra = 1 0 0
  (1) pair lj/cut, perpetual
      attributes: half, newton on
      pair build: half/bin/atomonly/newton
      stencil: half/bin/3d
      bin: standard
Per MPI rank memory allocation (min/avg/max) = 4.116 | 4.117 | 4.117 Mbytes
   Step          Temp          E_pair         E_mol          TotEng         Press     
         0   0.475         -6.9130694      0             -6.2025486      3.8081646    
    300000   0.5083843     -7.0306798      0             -6.2702216      3.2286712    
    600000   0.49886775    -6.9770997      0             -6.2308766      3.2885219    
    900000   0.45621329    -6.9541947      0             -6.2717756      3.4078683    
   1200000   0.47522548    -6.8518456      0             -6.1409875      4.1987912    
   1500000   0.44363305    -6.9230411      0             -6.25944        3.7388497    
   1800000   0.47263121    -6.9209442      0             -6.2139666      3.6630655    
   2100000   0.49213579    -6.9515413      0             -6.2153882      3.4471626    
   2400000   0.48337806    -6.9793695      0             -6.2563165      3.3952729    
   2700000   0.45404905    -6.9644499      0             -6.2852682      3.47495      
   3000000   0.46529219    -6.9617109      0             -6.2657113      3.3463592    
   3300000   0.49275231    -6.9525575      0             -6.2154822      3.5504007    
   3600000   0.48587134    -6.9772712      0             -6.2504887      3.3189203    
   3900000   0.46718526    -6.9202656      0             -6.2214343      3.7907036    
   4200000   0.48159588    -6.970251       0             -6.2498638      3.2032333    
   4500000   0.47130137    -6.949118       0             -6.2441297      3.5749034    
   4800000   0.48054354    -6.9535885      0             -6.2347755      3.3665665    
   5100000   0.45798719    -6.923449       0             -6.2383765      3.5684416    
   5400000   0.44904891    -6.9339086      0             -6.2622063      3.5480413    
   5700000   0.4454182     -6.8864274      0             -6.220156       3.9155942    
   6000000   0.49167197    -6.9292288      0             -6.1937695      3.6637126    
   6300000   0.48674588    -6.9661516      0             -6.2380609      3.3480811    
   6600000   0.462061      -7.005963       0             -6.3147967      3.2244746    
   6900000   0.48231392    -6.993488       0             -6.2720268      3.1967869    
   7200000   0.4943515     -6.9709187      0             -6.2314512      3.2206651    
   7500000   0.45712043    -6.9404357      0             -6.2566597      3.4725085    
   7800000   0.44277829    -6.9009731      0             -6.2386506      3.7042814    
   8100000   0.44360181    -6.9982303      0             -6.3346759      3.1146155    
   8400000   0.45711589    -7.0037975      0             -6.3200283      3.0294247    
   8700000   0.47255689    -6.961766       0             -6.2548996      3.4071699    
   9000000   0.46756566    -6.972462       0             -6.2730616      3.340086     
   9300000   0.49690667    -6.9661238      0             -6.2228342      3.4592468    
   9600000   0.45196343    -6.9501367      0             -6.2740748      3.4158464    
   9900000   0.44301249    -6.9119515      0             -6.2492787      3.7320507    
  10200000   0.46218743    -6.9851343      0             -6.293779       3.292123     
  10500000   0.45147225    -6.9143665      0             -6.2390393      3.623138     
  10800000   0.50264327    -6.8953286      0             -6.1434581      3.7604017    
  11100000   0.46046604    -6.9355514      0             -6.2467709      3.486502     
  11400000   0.47227781    -6.9387176      0             -6.2322687      3.5182827    
  11700000   0.44673001    -6.9605595      0             -6.2923259      3.4771399    
  12000000   0.47922608    -7.0270159      0             -6.3101735      3.1140557    
  12300000   0.4494309     -6.9635254      0             -6.2912517      3.3349765    
  12600000   0.4771637     -6.9623794      0             -6.248622       3.3144641    
  12900000   0.48078744    -6.9833091      0             -6.2641312      3.4150925    
  13200000   0.48458177    -6.9411534      0             -6.2162998      3.6473274    
  13500000   0.47363382    -6.9899532      0             -6.2814759      3.034411     
  13800000   0.46954882    -6.9688626      0             -6.2664958      3.2355281    
  14100000   0.52116697    -6.9581752      0             -6.1785962      3.3907456    
  14400000   0.50688132    -6.9661037      0             -6.2078937      3.5720284    
  14700000   0.43059012    -6.9132237      0             -6.2691327      3.662872     
  15000000   0.45549395    -6.9614293      0             -6.2800863      3.3505917    
  15300000   0.46519283    -6.9388461      0             -6.2429951      3.6490919    
  15600000   0.49534717    -6.9289795      0             -6.1880227      3.6093074    
  15900000   0.45190778    -6.9411098      0             -6.2651311      3.6026128    
  16200000   0.45496505    -6.9406075      0             -6.2600556      3.4875222    
  16500000   0.48989152    -6.9344592      0             -6.2016632      3.5775405    
  16800000   0.48560053    -6.9454694      0             -6.2190919      3.6280358    
  17100000   0.4996823     -6.9848266      0             -6.2373852      3.325796     
  17400000   0.45724741    -6.9356806      0             -6.2517147      3.556025     
  17700000   0.47065815    -6.9191504      0             -6.2151242      3.8132999    
  18000000   0.46253067    -6.9041219      0             -6.2122531      3.7919694    
  18300000   0.46840209    -6.9777519      0             -6.2771005      3.2353153    
  18600000   0.45566344    -6.904911       0             -6.2233144      3.6488667    
  18900000   0.4418832     -6.9947327      0             -6.3337491      3.1778986    
  19200000   0.50234456    -6.9447594      0             -6.1933356      3.6280685    
  19500000   0.46384523    -6.9039691      0             -6.210134       3.6737676    
  19800000   0.45741405    -6.9873447      0             -6.3031295      3.062567     
  20100000   0.47680019    -7.015808       0             -6.3025944      2.9956488    
  20400000   0.43505451    -6.9654694      0             -6.3147004      3.2248014    
  20700000   0.48615648    -6.9840215      0             -6.2568125      3.2765085    
  21000000   0.48642874    -6.9708536      0             -6.2432373      3.4481116    
  21300000   0.46435745    -6.9726686      0             -6.2780672      3.2433235    
  21600000   0.44639259    -7.0228734      0             -6.3551445      3.0416126    
  21900000   0.4845753     -6.9286579      0             -6.203814       3.4803979    
  22200000   0.48510798    -6.9193235      0             -6.1936828      3.5932731    
  22500000   0.47978805    -6.9859643      0             -6.2682814      3.2331005    
  22800000   0.46318597    -6.976887       0             -6.2840379      3.3340736    
  23100000   0.48333189    -6.9680384      0             -6.2450545      3.476768     
  23400000   0.50190003    -7.0062931      0             -6.2555343      3.1580071    
  23700000   0.48542965    -6.9681004      0             -6.2419785      3.245546     
  24000000   0.50874995    -6.9555276      0             -6.1945225      3.5667855    
  24300000   0.48187155    -7.0099967      0             -6.2891972      3.2011775    
  24600000   0.46285882    -6.9765037      0             -6.284144       3.3303338    
  24900000   0.47387742    -6.9420274      0             -6.2331858      3.5657231    
  25200000   0.50179372    -6.987129       0             -6.2365293      3.2194285    
  25500000   0.49917446    -6.9836435      0             -6.2369617      3.3668099    
  25800000   0.44594405    -6.967039       0             -6.2999811      3.3779564    
  26100000   0.4815883     -6.980634       0             -6.2602582      3.3203978    
  26400000   0.43280528    -6.9974118      0             -6.3500072      3.1783207    
  26700000   0.4819883     -6.9262234      0             -6.2052493      3.657382     
  27000000   0.47703388    -6.9135916      0             -6.2000284      3.5998491    
  27300000   0.47463571    -6.9867535      0             -6.2767776      3.1632624    
  27600000   0.52071267    -6.9965514      0             -6.217652       3.2572191    
  27900000   0.46662183    -6.9012081      0             -6.2032196      3.8767408    
  28200000   0.46607308    -7.0026147      0             -6.305447       3.1020032    
  28500000   0.47442574    -6.9768093      0             -6.2671474      3.3533289    
  28800000   0.52129455    -6.9629991      0             -6.1832294      3.3864373    
  29100000   0.44344452    -6.9581627      0             -6.2948436      3.3407383    
  29400000   0.49090033    -6.9407803      0             -6.2064752      3.5165767    
  29700000   0.46426109    -7.0092407      0             -6.3147835      3.0856238    
  30000000   0.48120767    -6.9715618      0             -6.2517553      3.3815982    
Loop time of 2475.86 on 4 procs for 30000000 steps with 360 atoms

Performance: 3140727.860 tau/day, 12117.006 timesteps/s, 4.362 Matom-step/s
99.8% CPU use with 4 MPI tasks x 1 OpenMP threads

MPI task timing breakdown:
Section |  min time  |  avg time  |  max time  |%varavg| %total
---------------------------------------------------------------
Pair    | 1529.1     | 1550.3     | 1565.4     |  39.7 | 62.62
Neigh   | 130.33     | 131.07     | 131.72     |   5.3 |  5.29
Comm    | 677.96     | 695.63     | 714.53     |  60.1 | 28.10
Output  | 0.32566    | 0.32619    | 0.32777    |   0.2 |  0.01
Modify  | 67.534     | 71.841     | 75.384     |  39.1 |  2.90
Other   |            | 26.67      |            |       |  1.08

Nlocal:             90 ave          94 max          85 min
Histogram: 1 0 0 0 0 1 1 0 0 1
Nghost:        1236.75 ave        1240 max        1233 min
Histogram: 1 0 0 0 0 2 0 0 0 1
Neighs:        5193.25 ave        5429 max        4931 min
Histogram: 1 0 0 0 0 2 0 0 0 1

Total # of neighbors = 20773
Ave neighs/atom = 57.702778
Neighbor list builds = 770021
Dangerous builds = 988
Total wall time: 0:41:15
