
include ${pot}.lmp
include kalj.lmp
units lj
atom_style atomic

variable dimensions equal 3
variable density equal 1.2
variable fraca equal 0.8

dimension ${dimensions}
dimension 3
read_restart ${prevbasename}.final.lmprestart.${prevsteps}
read_restart equil/kalj_T0.55_n360_v300_3000000_1.final.lmprestart.${prevsteps}
read_restart equil/kalj_T0.55_n360_v300_3000000_1.final.lmprestart.3000000
Reading restart file ...
  restart file = 15 Sep 2022, LAMMPS = 15 Sep 2022
  restoring atom style atomic from restart
  orthogonal box = (0 0 0) to (6.6943295 6.6943295 6.6943295)
  1 by 2 by 2 MPI processor grid
  restoring pair style lj/cut from restart
  360 atoms
  read_restart CPU = 0.001 seconds
include ${pot}_particles.lmp
include kalj_particles.lmp
mass * 1.0 #  set mass 1.0 for all types

pair_style lj/cut 2.5
#pair coeffs type1 type2 eps sigma
pair_coeff 1 1 1.0 1.00 2.5
pair_coeff 1 2 1.5 0.80 2.0
pair_coeff 2 2 0.5 0.88 2.2
pair_modify shift yes
reset_timestep 0

print "Setting up annealing run"
Setting up annealing run
dump 1 all atom ${dumptime} ${basename}.lammpstrj
dump 1 all atom 1000000 ${basename}.lammpstrj
dump 1 all atom 1000000 equil/kalj_T0.5_n360_v300_10000000_1.lammpstrj
#dump_modify 1 sort id scale no

restart ${restarttime} ${basename}.restart
restart 10000000 ${basename}.restart
restart 10000000 equil/kalj_T0.5_n360_v300_10000000_1.restart
restart ${steps} ${basename}.final.lmprestart
restart 10000000 ${basename}.final.lmprestart
restart 10000000 equil/kalj_T0.5_n360_v300_10000000_1.final.lmprestart

thermo ${thermotime}
thermo 100000
timestep ${timestep}
timestep 0.003

neighbor 0.5 bin
neigh_modify every 1 delay ${neighborstep} check yes
neigh_modify every 1 delay 25 check yes

velocity all create ${temp} ${id} dist gaussian
velocity all create 0.5 ${id} dist gaussian
velocity all create 0.5 1 dist gaussian
fix 1 all nvt temp ${temp} ${temp} ${taut}
fix 1 all nvt temp 0.5 ${temp} ${taut}
fix 1 all nvt temp 0.5 0.5 ${taut}
fix 1 all nvt temp 0.5 0.5 0.3
Resetting global fix info from restart file:
  fix style: nvt, fix ID: 1
run ${steps}
run 10000000
Generated 0 of 1 mixed pair_coeff terms from geometric mixing rule
All restart file global fix info was re-assigned
Neighbor list info ...
  update: every = 1 steps, delay = 25 steps, check = yes
  max neighbors/atom: 2000, page size: 100000
  master list distance cutoff = 3
  ghost atom cutoff = 3
  binsize = 1.5, bins = 5 5 5
  1 neighbor lists, perpetual/occasional/extra = 1 0 0
  (1) pair lj/cut, perpetual
      attributes: half, newton on
      pair build: half/bin/atomonly/newton
      stencil: half/bin/3d
      bin: standard
Per MPI rank memory allocation (min/avg/max) = 4.115 | 4.115 | 4.116 Mbytes
   Step          Temp          E_pair         E_mol          TotEng         Press     
         0   0.5           -6.7889398      0             -6.0410231      4.477028     
    100000   0.48871926    -6.9377236      0             -6.2066811      3.3959908    
    200000   0.50184319    -6.866786       0             -6.1161123      4.1044394    
    300000   0.49376188    -6.9050752      0             -6.1664897      3.8231785    
    400000   0.48948011    -6.8951333      0             -6.1629526      3.9934723    
    500000   0.51303488    -6.87002        0             -6.1026054      3.9599004    
    600000   0.48281137    -6.822484       0             -6.1002786      4.335065     
    700000   0.51521752    -6.9157681      0             -6.1450886      3.7823009    
    800000   0.49368987    -6.9087381      0             -6.1702604      3.7132038    
    900000   0.52027453    -6.9130403      0             -6.1347963      3.6973536    
   1000000   0.52386385    -6.9486378      0             -6.1650248      3.466766     
   1100000   0.50110212    -6.9324135      0             -6.1828483      3.4847503    
   1200000   0.47805532    -6.9271201      0             -6.212029       3.510933     
   1300000   0.46866691    -6.9116853      0             -6.2106377      3.6758137    
   1400000   0.49056221    -6.9445597      0             -6.2107604      3.5858388    
   1500000   0.54941123    -6.8900101      0             -6.0681824      3.8695747    
   1600000   0.50551027    -6.9033318      0             -6.1471727      3.8517435    
   1700000   0.49765534    -6.8741603      0             -6.1297509      3.9522705    
   1800000   0.49883121    -6.9557261      0             -6.2095577      3.4781971    
   1900000   0.49883858    -6.9241881      0             -6.1780087      3.5654738    
   2000000   0.50952282    -6.8782298      0             -6.1160686      3.8120792    
   2100000   0.51099926    -6.9151106      0             -6.1507409      3.822469     
   2200000   0.50274049    -6.9065338      0             -6.1545178      3.7169872    
   2300000   0.50230522    -6.8518197      0             -6.1004548      4.0994487    
   2400000   0.49991403    -6.9187099      0             -6.1709219      3.6585345    
   2500000   0.51666265    -6.858859       0             -6.0860178      4.2194479    
   2600000   0.50035431    -6.9212603      0             -6.1728137      3.6783753    
   2700000   0.49370704    -6.9528178      0             -6.2143144      3.4606958    
   2800000   0.53976085    -6.8878533      0             -6.0804611      3.8913981    
   2900000   0.52342819    -6.8927082      0             -6.1097469      3.9098185    
   3000000   0.47634392    -6.9305761      0             -6.218045       3.4882562    
   3100000   0.51949776    -6.8975872      0             -6.1205051      3.8978176    
   3200000   0.51129813    -6.8409138      0             -6.076097       4.1805763    
   3300000   0.5163269     -6.9035774      0             -6.1312385      3.8724745    
   3400000   0.49474519    -6.8352319      0             -6.0951755      4.198091     
   3500000   0.52657143    -6.9068274      0             -6.1191643      3.9128149    
   3600000   0.48547213    -6.8540178      0             -6.1278324      4.029532     
   3700000   0.49656993    -6.9069408      0             -6.1641549      3.9996435    
   3800000   0.50297442    -6.8859222      0             -6.1335563      3.9135309    
   3900000   0.4942155     -6.7890615      0             -6.0497975      4.5290512    
   4000000   0.47045604    -6.8963043      0             -6.1925805      3.748076     
   4100000   0.5055675     -6.8402085      0             -6.0839638      4.1361584    
   4200000   0.4697625     -6.8712759      0             -6.1685895      3.9269318    
   4300000   0.52218354    -6.8923621      0             -6.1112625      3.836312     
   4400000   0.48469268    -6.8326913      0             -6.1076718      4.2297406    
   4500000   0.53495337    -6.8887426      0             -6.0885415      4.0444811    
   4600000   0.48168859    -6.8928515      0             -6.1723256      3.7770077    
   4700000   0.48611024    -6.8809634      0             -6.1538235      3.7233563    
   4800000   0.5525242     -6.8520204      0             -6.0255362      4.0567622    
   4900000   0.49274489    -6.8809929      0             -6.1439287      3.7379839    
   5000000   0.49323936    -6.8618954      0             -6.1240915      4.1557958    
   5100000   0.51445979    -6.8792752      0             -6.1097291      3.8065225    
   5200000   0.49489728    -6.8229375      0             -6.0826536      4.2363548    
   5300000   0.49826622    -6.9682057      0             -6.2228825      3.3628863    
   5400000   0.48862006    -6.9583417      0             -6.2274476      3.3480901    
   5500000   0.53805946    -6.9020856      0             -6.0972383      3.8978758    
   5600000   0.4964793     -6.8433821      0             -6.1007318      4.3496482    
   5700000   0.51094651    -6.9138101      0             -6.1495193      3.9844468    
   5800000   0.46475256    -6.9238137      0             -6.2286213      3.6936828    
   5900000   0.507814      -6.9334879      0             -6.1738828      3.4916543    
   6000000   0.49738766    -6.9564388      0             -6.2124298      3.4900656    
   6100000   0.50516327    -6.913294       0             -6.1576539      3.7450381    
   6200000   0.48757295    -6.9488008      0             -6.219473       3.4546817    
   6300000   0.49865103    -6.9171865      0             -6.1712877      3.7783889    
   6400000   0.51918379    -6.9609755      0             -6.1843631      3.4674144    
   6500000   0.49267675    -6.9037119      0             -6.1667496      3.7254172    
   6600000   0.4778151     -6.9139586      0             -6.1992269      3.7396222    
   6700000   0.53213694    -6.940232       0             -6.1442438      3.6916725    
   6800000   0.52110234    -6.8497925      0             -6.0703102      4.0273305    
   6900000   0.5158755     -6.9316121      0             -6.1599483      3.5134202    
   7000000   0.49133045    -6.8677322      0             -6.1327837      4.0781521    
   7100000   0.48247705    -6.8752502      0             -6.153545       3.8543005    
   7200000   0.49928077    -6.8992663      0             -6.1524255      3.8956268    
   7300000   0.49876367    -6.927311       0             -6.1812437      3.789066     
   7400000   0.48996887    -6.9393158      0             -6.206404       3.657252     
   7500000   0.46097054    -6.8743565      0             -6.1848214      3.8414182    
   7600000   0.51539829    -6.9157385      0             -6.1447885      3.6236239    
   7700000   0.49384133    -6.8815566      0             -6.1428523      3.9233876    
   7800000   0.5583586     -6.9758364      0             -6.140625       3.3882071    
   7900000   0.5045708     -6.9056396      0             -6.1508858      3.7042357    
   8000000   0.52598995    -6.9263028      0             -6.1395095      3.7281643    
   8100000   0.49766347    -6.9558206      0             -6.211399       3.4825421    
   8200000   0.46804464    -6.8937818      0             -6.193665       3.7867343    
   8300000   0.46187083    -6.9048298      0             -6.213948       3.6870551    
   8400000   0.51740219    -6.9067167      0             -6.1327692      3.5938409    
   8500000   0.48061752    -6.8975764      0             -6.1786527      3.726941     
   8600000   0.50936871    -6.8791326      0             -6.1172019      3.9583527    
   8700000   0.48847688    -6.865636       0             -6.134956       3.9512109    
   8800000   0.49626343    -6.8919748      0             -6.1496474      3.9363376    
   8900000   0.49636992    -6.874096       0             -6.1316094      3.8524438    
   9000000   0.52556067    -6.8708692      0             -6.084718       4.0434973    
   9100000   0.50581611    -6.9156892      0             -6.1590726      3.8647833    
   9200000   0.52654937    -6.880491       0             -6.0928609      4.0275809    
   9300000   0.51530031    -6.8896906      0             -6.1188873      3.9801298    
   9400000   0.52804508    -6.8941238      0             -6.1042564      3.9840987    
   9500000   0.48721615    -6.9755136      0             -6.2467194      3.3326113    
   9600000   0.50994359    -6.931793       0             -6.1690024      3.7755261    
   9700000   0.48884094    -6.900975       0             -6.1697505      3.8044131    
   9800000   0.46489078    -6.8907453      0             -6.1953462      3.7771664    
   9900000   0.50240459    -6.9201715      0             -6.1686579      3.860089     
  10000000   0.51924229    -6.9130694      0             -6.1363695      3.8611079    
Loop time of 816.26 on 4 procs for 10000000 steps with 360 atoms

Performance: 3175457.005 tau/day, 12250.992 timesteps/s, 4.410 Matom-step/s
99.7% CPU use with 4 MPI tasks x 1 OpenMP threads

MPI task timing breakdown:
Section |  min time  |  avg time  |  max time  |%varavg| %total
---------------------------------------------------------------
Pair    | 509.87     | 512.72     | 518.29     |  15.0 | 62.81
Neigh   | 45.055     | 45.213     | 45.53      |   2.8 |  5.54
Comm    | 219.68     | 225.62     | 228.89     |  24.3 | 27.64
Output  | 0.27353    | 0.27404    | 0.27554    |   0.2 |  0.03
Modify  | 23.269     | 23.722     | 24.118     |   6.2 |  2.91
Other   |            | 8.709      |            |       |  1.07

Nlocal:             90 ave          93 max          88 min
Histogram: 1 0 1 0 1 0 0 0 0 1
Nghost:         1238.5 ave        1249 max        1224 min
Histogram: 1 0 0 0 1 0 0 0 1 1
Neighs:        5204.75 ave        5458 max        5011 min
Histogram: 1 0 1 0 1 0 0 0 0 1

Total # of neighbors = 20819
Ave neighs/atom = 57.830556
Neighbor list builds = 265824
Dangerous builds = 619
Total wall time: 0:13:36
