
include ${pot}.lmp
include kalj.lmp
units lj
atom_style atomic

variable dimensions equal 3
variable density equal 1.2
variable fraca equal 0.8

dimension ${dimensions}
dimension 3
read_restart ${prevbasename}.final.lmprestart.${prevsteps}
read_restart equil/kalj_T0.6_n360_v300_1000000_1.final.lmprestart.${prevsteps}
read_restart equil/kalj_T0.6_n360_v300_1000000_1.final.lmprestart.1000000
Reading restart file ...
  restart file = 15 Sep 2022, LAMMPS = 15 Sep 2022
  restoring atom style atomic from restart
  orthogonal box = (0 0 0) to (6.6943295 6.6943295 6.6943295)
  1 by 2 by 2 MPI processor grid
  restoring pair style lj/cut from restart
  360 atoms
  read_restart CPU = 0.002 seconds
include ${pot}_particles.lmp
include kalj_particles.lmp
mass * 1.0 #  set mass 1.0 for all types

pair_style lj/cut 2.5
#pair coeffs type1 type2 eps sigma
pair_coeff 1 1 1.0 1.00 2.5
pair_coeff 1 2 1.5 0.80 2.0
pair_coeff 2 2 0.5 0.88 2.2
pair_modify shift yes
reset_timestep 0

print "Setting up annealing run"
Setting up annealing run
dump 1 all atom ${dumptime} ${basename}.lammpstrj
dump 1 all atom 300000 ${basename}.lammpstrj
dump 1 all atom 300000 equil/kalj_T0.55_n360_v300_3000000_1.lammpstrj
#dump_modify 1 sort id scale no

restart ${restarttime} ${basename}.restart
restart 3000000 ${basename}.restart
restart 3000000 equil/kalj_T0.55_n360_v300_3000000_1.restart
restart ${steps} ${basename}.final.lmprestart
restart 3000000 ${basename}.final.lmprestart
restart 3000000 equil/kalj_T0.55_n360_v300_3000000_1.final.lmprestart

thermo ${thermotime}
thermo 30000
timestep ${timestep}
timestep 0.003

neighbor 0.5 bin
neigh_modify every 1 delay ${neighborstep} check yes
neigh_modify every 1 delay 25 check yes

velocity all create ${temp} ${id} dist gaussian
velocity all create 0.55 ${id} dist gaussian
velocity all create 0.55 1 dist gaussian
fix 1 all nvt temp ${temp} ${temp} ${taut}
fix 1 all nvt temp 0.55 ${temp} ${taut}
fix 1 all nvt temp 0.55 0.55 ${taut}
fix 1 all nvt temp 0.55 0.55 0.3
Resetting global fix info from restart file:
  fix style: nvt, fix ID: 1
run ${steps}
run 3000000
Generated 0 of 1 mixed pair_coeff terms from geometric mixing rule
All restart file global fix info was re-assigned
Neighbor list info ...
  update: every = 1 steps, delay = 25 steps, check = yes
  max neighbors/atom: 2000, page size: 100000
  master list distance cutoff = 3
  ghost atom cutoff = 3
  binsize = 1.5, bins = 5 5 5
  1 neighbor lists, perpetual/occasional/extra = 1 0 0
  (1) pair lj/cut, perpetual
      attributes: half, newton on
      pair build: half/bin/atomonly/newton
      stencil: half/bin/3d
      bin: standard
Per MPI rank memory allocation (min/avg/max) = 4.116 | 4.116 | 4.116 Mbytes
   Step          Temp          E_pair         E_mol          TotEng         Press     
         0   0.55          -6.7099978      0             -5.8872895      4.863776     
     30000   0.52312959    -6.7452596      0             -5.9627449      4.758671     
     60000   0.51854007    -6.7823672      0             -6.0067177      4.6021794    
     90000   0.55358659    -6.7701414      0             -5.9420681      4.6829225    
    120000   0.55477658    -6.8524637      0             -6.0226104      4.0212917    
    150000   0.52859434    -6.8209962      0             -6.0303071      4.5093616    
    180000   0.53310658    -6.8040336      0             -6.006595       4.4771929    
    210000   0.57028976    -6.7971258      0             -5.9440674      4.547857     
    240000   0.54929037    -6.7931495      0             -5.9715026      4.5822982    
    270000   0.58015598    -6.854987       0             -5.9871703      4.3822949    
    300000   0.56693471    -6.7689826      0             -5.9209427      4.9288297    
    330000   0.57693084    -6.7376332      0             -5.8746408      4.9746609    
    360000   0.53072       -6.7999687      0             -6.0061         4.6990196    
    390000   0.55408721    -6.7702905      0             -5.9414684      4.767118     
    420000   0.56216313    -6.8456232      0             -6.0047208      4.3126603    
    450000   0.53362205    -6.8183834      0             -6.0201737      4.3087691    
    480000   0.62723376    -6.8084015      0             -5.8701643      4.5078871    
    510000   0.53266446    -6.8487871      0             -6.0520099      4.162525     
    540000   0.55746881    -6.8246473      0             -5.9907669      4.2716972    
    570000   0.53831675    -6.8649123      0             -6.0596801      4.0851527    
    600000   0.57401011    -6.8978398      0             -6.0392164      3.9528818    
    630000   0.55489912    -6.8134463      0             -5.9834097      4.4570112    
    660000   0.54717737    -6.8379838      0             -6.0194977      4.2605339    
    690000   0.54966453    -6.7594055      0             -5.9371989      4.8503273    
    720000   0.49954361    -6.7866084      0             -6.0393744      4.5096619    
    750000   0.5386513     -6.8358735      0             -6.0301409      4.3475436    
    780000   0.53992982    -6.8258599      0             -6.0182148      4.2121043    
    810000   0.58049484    -6.7706483      0             -5.9023248      4.747762     
    840000   0.54439022    -6.8441311      0             -6.029814       4.1491333    
    870000   0.55076987    -6.8168024      0             -5.9929424      4.35299      
    900000   0.56760468    -6.7453684      0             -5.8963264      5.0304634    
    930000   0.57279856    -6.8026918      0             -5.9458806      4.6013555    
    960000   0.54337684    -6.8351422      0             -6.022341       4.2097789    
    990000   0.52549469    -6.7605534      0             -5.9745009      4.7449138    
   1020000   0.55215708    -6.8086774      0             -5.9827424      4.3819158    
   1050000   0.56993953    -6.7709511      0             -5.9184166      4.7217407    
   1080000   0.53002039    -6.7220275      0             -5.9292054      4.8466487    
   1110000   0.54914999    -6.7919924      0             -5.9705556      4.4458451    
   1140000   0.54149296    -6.7367544      0             -5.9267712      4.7439601    
   1170000   0.56889257    -6.8394172      0             -5.9884487      4.2689947    
   1200000   0.54468301    -6.8642142      0             -6.0494592      4.017175     
   1230000   0.52610335    -6.7782311      0             -5.9912681      4.6196585    
   1260000   0.58111103    -6.8495372      0             -5.9802919      4.1286801    
   1290000   0.55256751    -6.8447554      0             -6.0182065      4.351625     
   1320000   0.56290767    -6.7048899      0             -5.8628738      5.0577562    
   1350000   0.60562852    -6.8498405      0             -5.9439212      4.1443835    
   1380000   0.5290569     -6.7588823      0             -5.9675014      4.6124971    
   1410000   0.50430982    -6.8127419      0             -6.0583784      4.3323457    
   1440000   0.58164263    -6.845638       0             -5.9755975      4.3673083    
   1470000   0.54845661    -6.8090621      0             -5.9886625      4.3165066    
   1500000   0.51732074    -6.8241783      0             -6.0503527      4.2601933    
   1530000   0.52277877    -6.8487571      0             -6.0667672      4.2505718    
   1560000   0.55540854    -6.8068868      0             -5.9760882      4.4446114    
   1590000   0.55854329    -6.847694       0             -6.0122063      4.0525498    
   1620000   0.56999473    -6.8543092      0             -6.0016921      4.2455889    
   1650000   0.51644363    -6.8038387      0             -6.0313251      4.4156011    
   1680000   0.54956359    -6.8091897      0             -5.9871341      4.5048753    
   1710000   0.54032041    -6.8401034      0             -6.0318742      4.1102704    
   1740000   0.55238507    -6.8826569      0             -6.0563809      4.2543138    
   1770000   0.53571136    -6.8243072      0             -6.0229723      4.3533216    
   1800000   0.54777871    -6.8287637      0             -6.009378       4.3207629    
   1830000   0.54147964    -6.8975377      0             -6.0875744      3.7810284    
   1860000   0.56864437    -6.8407714      0             -5.9901742      4.2166099    
   1890000   0.53897462    -6.809895       0             -6.0036788      4.2705623    
   1920000   0.54511774    -6.8756976      0             -6.0602923      3.8167729    
   1950000   0.5406686     -6.8495353      0             -6.0407852      4.1235046    
   1980000   0.59239568    -6.8681331      0             -5.9820079      4.0549595    
   2010000   0.57680108    -6.7773014      0             -5.9145031      4.7173114    
   2040000   0.58050084    -6.7823084      0             -5.9139759      4.6736902    
   2070000   0.56326759    -6.8219511      0             -5.9793966      4.2983478    
   2100000   0.53525199    -6.7759588      0             -5.975311       4.5055658    
   2130000   0.53519049    -6.807407       0             -6.0068512      4.3190985    
   2160000   0.5959021     -6.6669686      0             -5.7755983      5.426031     
   2190000   0.53169576    -6.76559        0             -5.9702618      4.6240106    
   2220000   0.54579704    -6.8079209      0             -5.9914995      4.4216033    
   2250000   0.57506797    -6.7305942      0             -5.8703883      4.9370982    
   2280000   0.53723634    -6.7662548      0             -5.9626388      4.6496115    
   2310000   0.58646232    -6.7916958      0             -5.914446       4.580309     
   2340000   0.56675115    -6.7249818      0             -5.8772166      4.8446961    
   2370000   0.57508077    -6.8130754      0             -5.9528504      4.4150478    
   2400000   0.53700394    -6.8265981      0             -6.0233297      4.4504199    
   2430000   0.55652876    -6.848422       0             -6.0159477      4.0975564    
   2460000   0.50602805    -6.8255961      0             -6.0686625      4.2818519    
   2490000   0.56595642    -6.8202055      0             -5.973629       4.3677213    
   2520000   0.57909382    -6.793739       0             -5.9275112      4.605356     
   2550000   0.5562037     -6.8069252      0             -5.9749372      4.6042477    
   2580000   0.53536569    -6.7096867      0             -5.9088689      5.0818671    
   2610000   0.55068653    -6.8148699      0             -5.9911346      4.3445671    
   2640000   0.56029897    -6.8153551      0             -5.9772412      4.4843677    
   2670000   0.53992638    -6.7553459      0             -5.947706       4.8210652    
   2700000   0.50388156    -6.7811503      0             -6.0274275      4.5805447    
   2730000   0.46447771    -6.8050028      0             -6.1102216      4.2934456    
   2760000   0.56359044    -6.8707696      0             -6.0277322      4.0741671    
   2790000   0.54356323    -6.7883054      0             -5.9752254      4.5480847    
   2820000   0.52055087    -6.7904894      0             -6.0118321      4.5123127    
   2850000   0.51242432    -6.8340966      0             -6.0675952      4.3293846    
   2880000   0.52702272    -6.7508864      0             -5.9625482      4.7186692    
   2910000   0.53306887    -6.8072107      0             -6.0098285      4.4051986    
   2940000   0.52106033    -6.7805631      0             -6.0011437      4.5867584    
   2970000   0.53424405    -6.836162       0             -6.037022       4.1009572    
   3000000   0.53797363    -6.7889398      0             -5.9842209      4.5224698    
Loop time of 248.719 on 4 procs for 3000000 steps with 360 atoms

Performance: 3126419.066 tau/day, 12061.802 timesteps/s, 4.342 Matom-step/s
99.7% CPU use with 4 MPI tasks x 1 OpenMP threads

MPI task timing breakdown:
Section |  min time  |  avg time  |  max time  |%varavg| %total
---------------------------------------------------------------
Pair    | 152.38     | 154.76     | 156.69     |  12.4 | 62.22
Neigh   | 14.337     | 14.477     | 14.608     |   2.6 |  5.82
Comm    | 67.669     | 69.583     | 71.911     |  18.3 | 27.98
Output  | 0.13462    | 0.13499    | 0.13609    |   0.2 |  0.05
Modify  | 7.0867     | 7.2391     | 7.3963     |   5.1 |  2.91
Other   |            | 2.528      |            |       |  1.02

Nlocal:             90 ave          92 max          85 min
Histogram: 1 0 0 0 0 0 0 0 1 2
Nghost:         1247.5 ave        1270 max        1237 min
Histogram: 2 0 1 0 0 0 0 0 0 1
Neighs:         5201.5 ave        5343 max        4881 min
Histogram: 1 0 0 0 0 0 0 0 1 2

Total # of neighbors = 20806
Ave neighs/atom = 57.794444
Neighbor list builds = 84866
Dangerous builds = 630
Total wall time: 0:04:08
